Route #1: 3 77 63
Route #2: 24 95 73 53 33 32
Route #3: 21 56 94 80
Route #4: 52 91 50
Route #5: 38 47 26 48 96 64 34
Route #6: 1 70 54
Route #7: 17 8
Route #8: 92 9 86
Route #9: 44 67 88 40
Route #10: 58 12 5
Route #11: 30 85 11 79
Route #12: 25 65 78 42 28
Route #13: 69 16 55 76
Route #14: 74 13 4
Route #15: 81 51 83
Route #16: 89 98 99 62 71
Route #17: 27 97 19
Route #18: 23 61 100
Route #19: 57 72 36 29 43 45 2 7
Route #20: 18 10 39
Route #21: 75 93
Route #22: 15 22 41 20
Route #23: 68 90 84 66
Route #24: 59 60 82
Route #25: 31 46 35
Route #26: 14 49 6 37 87
Cost 27591.0000
Time 16.0007